loading done
decomposition done

 start evaluating the following program


starting solver

Set parameter WLSAccessID
Set parameter WLSSecret
Set parameter LicenseID to value 2378159
Academic license - for non-commercial use only - registered to yashwant@mail.uni-paderborn.de
Block1: w=1 h=18 
Block2: w=1 h=30 
Block3: w=1 h=22 
Block4: w=1 h=25 
Block5: w=1 h=1 
Gurobi Optimizer version 10.0.0 build v10.0.0rc2 (linux64)

CPU model: AMD EPYC 7763 64-Core Processor, instruction set [SSE2|AVX|AVX2]
Thread count: 64 physical cores, 128 logical processors, using up to 32 threads

Academic license - for non-commercial use only - registered to yashwant@mail.uni-paderborn.de
Optimize a model with 50 rows, 36 columns and 211 nonzeros
Model fingerprint: 0x8b37f073
Variable types: 1 continuous, 35 integer (0 binary)
Coefficient statistics:
  Matrix range     [1e+00, 3e+01]
  Objective range  [1e+00, 1e+00]
  Bounds range     [1e+00, 1e+00]
  RHS range        [1e+00, 6e+01]
Found heuristic solution: objective 30.0000000
Presolve removed 1 rows and 1 columns
Presolve time: 0.00s
Presolved: 49 rows, 35 columns, 210 nonzeros
Variable types: 0 continuous, 35 integer (24 binary)

Explored 0 nodes (0 simplex iterations) in 0.01 seconds (0.00 work units)
Thread count was 32 (of 128 available processors)

Solution count 1: 30 

Optimal solution found (tolerance 1.00e-04)
Best objective 3.000000000000e+01, best bound 3.000000000000e+01, gap 0.0000%
Academic license - for non-commercial use only - registered to yashwant@mail.uni-paderborn.de
IIS computation: initial model status unknown, solving to determine model status
Found heuristic solution: objective 0.0000000

Explored 0 nodes (0 simplex iterations) in 0.00 seconds (0.00 work units)
Thread count was 1 (of 128 available processors)

Solution count 1: 0 

Optimal solution found (tolerance 1.00e-04)
Best objective 0.000000000000e+00, best bound 0.000000000000e+00, gap 0.0000%
IIS runtime: 0.00 seconds (0.00 work units)
